HEA 1 1 1 2
1
10.000000 	0.000000 	0.000000
0.000000 	10.000000 	0.000000
0.000000 	0.000000 	10.000000
400 400 400 400 400
Cartesian
6.500000     7.500000   8.500000 Al
7.000000     0.000000   5.000000 Al
2.000000     4.000000   8.000000 Al
9.500000     1.500000   0.500000 Al
1.500000     7.500000   2.500000 Al
3.500000     7.500000   4.500000 Al
9.500000     1.500000   4.500000 Al
4.000000     6.000000   2.000000 Al
4.500000     6.500000   6.500000 Al
8.500000     2.500000   6.500000 Al
0.500000     9.500000   0.500000 Al
5.000000     2.000000   3.000000 Al
6.000000     0.000000   9.000000 Al
7.000000     7.000000   3.000000 Al
0.500000     2.500000   7.500000 Al
6.500000     4.500000   6.500000 Al
7.500000     0.500000   7.500000 Al
8.500000     3.500000   4.500000 Al
6.500000     8.500000   1.500000 Al
8.500000     6.500000   9.500000 Al
7.000000     2.000000   1.000000 Al
7.500000     4.500000   9.500000 Al
4.000000     1.000000   8.000000 Al
8.500000     9.500000   9.500000 Al
0.000000     2.000000   8.000000 Al
1.000000     4.000000   5.000000 Al
3.000000     9.000000   2.000000 Al
9.000000     3.000000   2.000000 Al
1.000000     0.000000   2.000000 Al
1.500000     0.500000   2.500000 Al
5.000000     6.000000   5.000000 Al
2.000000     8.000000   2.000000 Al
2.500000     9.500000   0.500000 Al
9.000000     7.000000   0.000000 Al
6.000000     4.000000   1.000000 Al
0.500000     9.500000   7.500000 Al
3.500000     5.500000   0.500000 Al
0.000000     8.000000   2.000000 Al
9.000000     8.000000   8.000000 Al
4.000000     1.000000   7.000000 Al
3.000000     8.000000   7.000000 Al
6.000000     1.000000   2.000000 Al
0.000000     3.000000   1.000000 Al
6.500000     1.500000   1.500000 Al
8.500000     0.500000   7.500000 Al
5.000000     0.000000   3.000000 Al
9.500000     8.500000   3.500000 Al
8.000000     1.000000   8.000000 Al
8.000000     1.000000   9.000000 Al
3.500000     1.500000   3.500000 Al
8.500000     5.500000   0.500000 Al
3.000000     1.000000   3.000000 Al
9.000000     9.000000   2.000000 Al
1.000000     0.000000   7.000000 Al
1.000000     2.000000   8.000000 Al
3.500000     2.500000   3.500000 Al
7.500000     3.500000   1.500000 Al
5.000000     4.000000   6.000000 Al
7.000000     5.000000   7.000000 Al
9.500000     4.500000   0.500000 Al
8.000000     5.000000   6.000000 Al
8.000000     3.000000   4.000000 Al
3.000000     9.000000   5.000000 Al
9.000000     8.000000   0.000000 Al
7.500000     5.500000   6.500000 Al
8.000000     2.000000   9.000000 Al
3.000000     5.000000   5.000000 Al
2.500000     7.500000   3.500000 Al
1.000000     2.000000   4.000000 Al
0.000000     8.000000   6.000000 Al
7.000000     0.000000   1.000000 Al
3.000000     0.000000   6.000000 Al
4.000000     1.000000   0.000000 Al
4.500000     4.500000   7.500000 Al
1.500000     5.500000   3.500000 Al
1.500000     9.500000   5.500000 Al
3.000000     2.000000   3.000000 Al
6.500000     1.500000   7.500000 Al
9.500000     1.500000   7.500000 Al
9.000000     2.000000   6.000000 Al
4.000000     2.000000   2.000000 Al
1.000000     5.000000   9.000000 Al
3.500000     4.500000   4.500000 Al
3.000000     4.000000   2.000000 Al
5.500000     9.500000   5.500000 Al
7.500000     4.500000   0.500000 Al
5.000000     1.000000   7.000000 Al
4.000000     0.000000   1.000000 Al
6.500000     5.500000   6.500000 Al
4.500000     1.500000   2.500000 Al
9.000000     5.000000   5.000000 Al
0.500000     1.500000   9.500000 Al
9.000000     7.000000   8.000000 Al
8.000000     0.000000   1.000000 Al
0.500000     8.500000   2.500000 Al
0.500000     8.500000   1.500000 Al
4.000000     3.000000   7.000000 Al
4.500000     5.500000   6.500000 Al
5.000000     9.000000   3.000000 Al
3.000000     9.000000   7.000000 Al
2.500000     2.500000   2.500000 Al
0.000000     1.000000   2.000000 Al
8.500000     7.500000   7.500000 Al
6.500000     1.500000   8.500000 Al
0.000000     0.000000   5.000000 Al
7.500000     1.500000   1.500000 Al
9.500000     4.500000   4.500000 Al
0.500000     1.500000   7.500000 Al
5.500000     3.500000   5.500000 Al
5.000000     4.000000   3.000000 Al
8.000000     0.000000   0.000000 Al
0.000000     2.000000   3.000000 Al
8.500000     2.500000   9.500000 Al
0.000000     1.000000   6.000000 Al
8.000000     4.000000   6.000000 Al
3.500000     9.500000   3.500000 Al
3.000000     2.000000   2.000000 Al
2.000000     8.000000   8.000000 Al
5.000000     1.000000   9.000000 Al
0.500000     6.500000   9.500000 Al
9.500000     5.500000   4.500000 Al
2.000000     4.000000   0.000000 Al
1.000000     6.000000   1.000000 Al
8.500000     4.500000   2.500000 Al
2.500000     7.500000   1.500000 Al
5.500000     8.500000   9.500000 Al
1.500000     4.500000   4.500000 Al
8.500000     3.500000   9.500000 Al
8.500000     6.500000   1.500000 Al
6.000000     2.000000   4.000000 Al
2.000000     5.000000   1.000000 Al
4.500000     1.500000   4.500000 Al
5.000000     3.000000   1.000000 Al
7.500000     8.500000   9.500000 Al
5.000000     5.000000   9.000000 Al
0.500000     4.500000   2.500000 Al
3.000000     7.000000   8.000000 Al
6.500000     0.500000   9.500000 Al
3.000000     2.000000   0.000000 Al
3.500000     9.500000   5.500000 Al
4.000000     3.000000   3.000000 Al
2.500000     3.500000   9.500000 Al
6.000000     8.000000   9.000000 Al
1.500000     0.500000   9.500000 Al
2.500000     8.500000   0.500000 Al
3.500000     6.500000   4.500000 Al
6.000000     2.000000   3.000000 Al
8.000000     6.000000   7.000000 Al
1.500000     0.500000   0.500000 Al
6.500000     2.500000   5.500000 Al
1.500000     6.500000   5.500000 Al
0.500000     2.500000   4.500000 Al
3.500000     5.500000   4.500000 Al
1.000000     4.000000   0.000000 Al
1.000000     1.000000   0.000000 Al
9.500000     4.500000   1.500000 Al
0.000000     7.000000   5.000000 Al
5.000000     0.000000   8.000000 Al
6.000000     3.000000   3.000000 Al
4.000000     4.000000   7.000000 Al
1.500000     8.500000   7.500000 Al
4.500000     6.500000   9.500000 Al
1.500000     3.500000   7.500000 Al
6.500000     2.500000   7.500000 Al
5.000000     5.000000   3.000000 Al
1.500000     2.500000   9.500000 Al
7.000000     4.000000   3.000000 Al
4.500000     8.500000   1.500000 Al
0.500000     8.500000   6.500000 Al
2.500000     2.500000   4.500000 Al
8.500000     6.500000   2.500000 Al
2.000000     4.000000   3.000000 Al
1.000000     7.000000   5.000000 Al
7.500000     7.500000   6.500000 Al
0.500000     7.500000   3.500000 Al
3.000000     2.000000   4.000000 Al
7.000000     2.000000   9.000000 Al
1.000000     1.000000   7.000000 Al
5.500000     0.500000   4.500000 Al
4.000000     4.000000   3.000000 Al
1.000000     9.000000   8.000000 Al
0.000000     9.000000   2.000000 Al
1.000000     2.000000   1.000000 Al
2.500000     7.500000   2.500000 Al
6.500000     1.500000   9.500000 Al
6.500000     4.500000   9.500000 Al
6.500000     3.500000   1.500000 Al
7.000000     1.000000   2.000000 Al
2.500000     8.500000   5.500000 Al
1.500000     3.500000   6.500000 Al
7.500000     3.500000   3.500000 Al
2.000000     1.000000   2.000000 Al
8.000000     2.000000   5.000000 Al
5.000000     2.000000   8.000000 Al
5.500000     0.500000   9.500000 Al
6.000000     9.000000   4.000000 Al
4.000000     9.000000   3.000000 Al
6.500000     3.500000   6.500000 Al
4.500000     4.500000   9.500000 Al
2.000000     5.000000   5.000000 Al
0.000000     9.000000   4.000000 Al
6.500000     9.500000   5.500000 Al
6.500000     9.500000   0.500000 Al
6.000000     1.000000   7.000000 Al
4.500000     0.500000   8.500000 Al
2.000000     9.000000   4.000000 Al
4.500000     0.500000   6.500000 Al
8.000000     0.000000   7.000000 Al
6.500000     8.500000   8.500000 Al
5.500000     1.500000   4.500000 Al
5.500000     8.500000   5.500000 Al
0.500000     0.500000   8.500000 Al
5.500000     7.500000   7.500000 Al
5.500000     1.500000   9.500000 Al
3.500000     8.500000   7.500000 Al
4.500000     6.500000   3.500000 Al
0.000000     2.000000   5.000000 Al
0.000000     2.000000   9.000000 Al
1.000000     5.000000   3.000000 Al
0.000000     0.000000   9.000000 Al
0.500000     9.500000   3.500000 Al
5.500000     2.500000   7.500000 Al
2.500000     5.500000   2.500000 Al
4.000000     0.000000   7.000000 Al
7.000000     9.000000   3.000000 Al
1.000000     7.000000   4.000000 Al
8.500000     8.500000   4.500000 Al
2.000000     2.000000   3.000000 Al
7.000000     0.000000   4.000000 Al
5.000000     9.000000   9.000000 Al
9.500000     6.500000   5.500000 Al
7.000000     3.000000   6.000000 Al
5.000000     4.000000   1.000000 Al
3.500000     5.500000   5.500000 Al
0.000000     0.000000   3.000000 Al
6.000000     9.000000   5.000000 Al
9.500000     6.500000   1.500000 Al
2.000000     8.000000   9.000000 Al
9.000000     2.000000   1.000000 Al
7.500000     3.500000   4.500000 Al
4.500000     0.500000   7.500000 Al
6.000000     5.000000   7.000000 Al
4.500000     6.500000   1.500000 Al
9.500000     3.500000   1.500000 Al
2.000000     9.000000   2.000000 Al
5.000000     9.000000   7.000000 Al
2.000000     5.000000   9.000000 Al
3.500000     9.500000   1.500000 Al
0.000000     1.000000   4.000000 Al
6.000000     9.000000   0.000000 Al
5.000000     7.000000   3.000000 Al
7.500000     7.500000   4.500000 Al
6.500000     0.500000   4.500000 Al
1.500000     2.500000   7.500000 Al
5.500000     7.500000   4.500000 Al
4.000000     2.000000   1.000000 Al
4.500000     9.500000   0.500000 Al
8.000000     6.000000   5.000000 Al
4.000000     0.000000   5.000000 Al
2.000000     7.000000   7.000000 Al
9.500000     7.500000   2.500000 Al
2.500000     2.500000   3.500000 Al
4.500000     7.500000   7.500000 Al
5.500000     4.500000   4.500000 Al
7.000000     7.000000   0.000000 Al
6.000000     7.000000   4.000000 Al
0.500000     2.500000   3.500000 Al
4.500000     8.500000   5.500000 Al
9.000000     4.000000   4.000000 Al
2.000000     1.000000   7.000000 Al
5.000000     1.000000   1.000000 Al
5.500000     0.500000   8.500000 Al
7.000000     4.000000   1.000000 Al
4.500000     8.500000   0.500000 Al
3.500000     9.500000   9.500000 Al
1.000000     0.000000   1.000000 Al
4.500000     2.500000   2.500000 Al
1.000000     2.000000   0.000000 Al
1.500000     9.500000   3.500000 Al
0.000000     5.000000   3.000000 Al
3.000000     1.000000   8.000000 Al
3.500000     4.500000   2.500000 Al
3.500000     3.500000   0.500000 Al
6.500000     3.500000   3.500000 Al
7.500000     9.500000   2.500000 Al
6.000000     6.000000   9.000000 Al
6.500000     8.500000   0.500000 Al
8.000000     8.000000   4.000000 Al
1.500000     2.500000   0.500000 Al
0.000000     9.000000   3.000000 Al
0.000000     6.000000   8.000000 Al
4.000000     4.000000   8.000000 Al
0.500000     0.500000   0.500000 Al
2.500000     1.500000   4.500000 Al
1.000000     1.000000   5.000000 Al
4.000000     8.000000   2.000000 Al
7.000000     1.000000   3.000000 Al
4.000000     3.000000   2.000000 Al
1.500000     6.500000   4.500000 Al
0.500000     7.500000   8.500000 Al
8.000000     5.000000   9.000000 Al
7.000000     5.000000   3.000000 Al
6.500000     2.500000   3.500000 Al
1.500000     9.500000   6.500000 Al
8.000000     7.000000   4.000000 Al
7.000000     4.000000   5.000000 Al
7.500000     3.500000   2.500000 Al
0.500000     4.500000   7.500000 Al
9.500000     1.500000   1.500000 Al
4.000000     2.000000   7.000000 Al
9.000000     3.000000   9.000000 Al
3.500000     0.500000   0.500000 Al
3.000000     4.000000   5.000000 Al
8.000000     0.000000   4.000000 Al
1.500000     7.500000   9.500000 Al
8.500000     3.500000   8.500000 Al
9.500000     0.500000   4.500000 Al
5.000000     6.000000   1.000000 Al
4.000000     6.000000   6.000000 Al
6.500000     2.500000   4.500000 Al
3.000000     7.000000   1.000000 Al
6.000000     5.000000   8.000000 Al
5.000000     7.000000   0.000000 Al
1.500000     2.500000   4.500000 Al
2.500000     0.500000   8.500000 Al
8.000000     7.000000   5.000000 Al
4.000000     6.000000   7.000000 Al
5.500000     3.500000   0.500000 Al
4.000000     8.000000   1.000000 Al
9.500000     9.500000   8.500000 Al
9.500000     9.500000   4.500000 Al
9.500000     1.500000   9.500000 Al
9.500000     8.500000   7.500000 Al
7.000000     1.000000   6.000000 Al
3.000000     8.000000   4.000000 Al
9.500000     8.500000   8.500000 Al
0.500000     1.500000   3.500000 Al
2.000000     8.000000   4.000000 Al
3.500000     9.500000   6.500000 Al
3.500000     2.500000   7.500000 Al
3.000000     4.000000   9.000000 Al
2.000000     4.000000   2.000000 Al
9.500000     8.500000   6.500000 Al
5.000000     5.000000   4.000000 Al
1.500000     1.500000   8.500000 Al
3.500000     0.500000   8.500000 Al
9.000000     4.000000   0.000000 Al
1.500000     7.500000   7.500000 Al
1.000000     7.000000   2.000000 Al
7.000000     2.000000   2.000000 Al
8.500000     4.500000   3.500000 Al
7.500000     6.500000   8.500000 Al
7.500000     1.500000   6.500000 Al
5.500000     1.500000   1.500000 Al
2.500000     0.500000   4.500000 Al
6.000000     0.000000   1.000000 Al
4.500000     3.500000   4.500000 Al
0.000000     3.000000   5.000000 Al
7.500000     3.500000   6.500000 Al
6.000000     3.000000   2.000000 Al
2.500000     4.500000   0.500000 Al
4.500000     6.500000   5.500000 Al
7.500000     2.500000   6.500000 Al
2.500000     6.500000   9.500000 Al
9.000000     8.000000   9.000000 Al
9.500000     2.500000   7.500000 Al
6.000000     1.000000   0.000000 Al
8.500000     7.500000   0.500000 Al
9.500000     3.500000   6.500000 Al
0.500000     2.500000   5.500000 Al
1.000000     9.000000   9.000000 Al
0.000000     9.000000   9.000000 Al
3.000000     0.000000   5.000000 Al
2.000000     7.000000   1.000000 Al
5.000000     0.000000   9.000000 Al
0.500000     1.500000   6.500000 Al
6.000000     5.000000   3.000000 Al
2.000000     7.000000   5.000000 Al
7.000000     9.000000   7.000000 Al
0.000000     4.000000   3.000000 Al
0.500000     5.500000   0.500000 Al
4.000000     6.000000   3.000000 Al
0.500000     9.500000   2.500000 Al
7.500000     1.500000   3.500000 Al
3.500000     7.500000   0.500000 Al
7.000000     3.000000   0.000000 Al
6.500000     9.500000   8.500000 Al
3.500000     6.500000   3.500000 Al
7.000000     3.000000   8.000000 Al
0.000000     7.000000   3.000000 Al
5.000000     7.000000   8.000000 Al
8.500000     8.500000   9.500000 Al
8.500000     8.500000   2.500000 Al
6.000000     4.000000   3.000000 Al
0.500000     2.500000   6.500000 Al
9.000000     1.000000   0.000000 Al
3.000000     7.000000   0.000000 Al
5.000000     2.000000   9.000000 Al
2.500000     1.500000   6.500000 Al
8.000000     6.000000   4.000000 Al
8.500000     7.500000   2.500000 Cr
4.500000     8.500000   8.500000 Cr
2.500000     1.500000   5.500000 Cr
2.000000     5.000000   4.000000 Cr
3.500000     7.500000   2.500000 Cr
4.000000     8.000000   5.000000 Cr
5.000000     8.000000   0.000000 Cr
6.500000     7.500000   6.500000 Cr
0.000000     4.000000   1.000000 Cr
4.000000     9.000000   8.000000 Cr
4.000000     9.000000   7.000000 Cr
7.000000     3.000000   9.000000 Cr
4.500000     4.500000   5.500000 Cr
7.000000     2.000000   3.000000 Cr
0.000000     0.000000   4.000000 Cr
2.000000     8.000000   7.000000 Cr
9.000000     6.000000   4.000000 Cr
4.500000     9.500000   5.500000 Cr
3.000000     1.000000   4.000000 Cr
2.500000     6.500000   0.500000 Cr
9.500000     2.500000   9.500000 Cr
7.000000     1.000000   0.000000 Cr
8.000000     0.000000   2.000000 Cr
1.000000     4.000000   6.000000 Cr
6.000000     3.000000   4.000000 Cr
9.000000     5.000000   0.000000 Cr
7.000000     8.000000   8.000000 Cr
8.500000     5.500000   8.500000 Cr
6.500000     6.500000   6.500000 Cr
5.000000     8.000000   8.000000 Cr
5.500000     7.500000   0.500000 Cr
9.000000     9.000000   7.000000 Cr
4.000000     5.000000   6.000000 Cr
5.500000     5.500000   9.500000 Cr
6.500000     9.500000   6.500000 Cr
8.000000     3.000000   6.000000 Cr
0.500000     7.500000   0.500000 Cr
9.500000     9.500000   7.500000 Cr
4.500000     1.500000   8.500000 Cr
6.000000     4.000000   7.000000 Cr
6.000000     7.000000   0.000000 Cr
5.000000     3.000000   7.000000 Cr
9.000000     6.000000   2.000000 Cr
1.000000     5.000000   1.000000 Cr
6.000000     3.000000   6.000000 Cr
0.500000     6.500000   2.500000 Cr
0.000000     0.000000   0.000000 Cr
2.500000     9.500000   4.500000 Cr
6.000000     8.000000   4.000000 Cr
6.500000     7.500000   7.500000 Cr
5.000000     7.000000   6.000000 Cr
2.000000     0.000000   8.000000 Cr
5.000000     9.000000   2.000000 Cr
6.500000     0.500000   2.500000 Cr
0.500000     9.500000   8.500000 Cr
4.000000     9.000000   9.000000 Cr
1.500000     4.500000   9.500000 Cr
0.000000     5.000000   4.000000 Cr
1.000000     9.000000   7.000000 Cr
5.500000     6.500000   8.500000 Cr
8.500000     5.500000   6.500000 Cr
5.000000     7.000000   9.000000 Cr
1.500000     6.500000   7.500000 Cr
8.000000     5.000000   1.000000 Cr
0.000000     7.000000   1.000000 Cr
0.000000     2.000000   7.000000 Cr
8.500000     5.500000   9.500000 Cr
7.500000     5.500000   8.500000 Cr
8.500000     0.500000   1.500000 Cr
8.000000     4.000000   0.000000 Cr
6.000000     4.000000   2.000000 Cr
3.000000     8.000000   9.000000 Cr
5.000000     3.000000   6.000000 Cr
4.500000     3.500000   2.500000 Cr
9.000000     9.000000   9.000000 Cr
6.000000     3.000000   0.000000 Cr
3.000000     7.000000   4.000000 Cr
0.000000     9.000000   7.000000 Cr
0.000000     6.000000   0.000000 Cr
3.000000     7.000000   6.000000 Cr
9.500000     4.500000   2.500000 Cr
7.000000     3.000000   5.000000 Cr
7.500000     2.500000   9.500000 Cr
6.500000     0.500000   6.500000 Cr
3.000000     8.000000   3.000000 Cr
2.500000     8.500000   9.500000 Cr
0.500000     9.500000   4.500000 Cr
3.000000     6.000000   4.000000 Cr
1.000000     6.000000   5.000000 Cr
3.500000     8.500000   8.500000 Cr
1.000000     6.000000   6.000000 Cr
3.500000     2.500000   2.500000 Cr
2.000000     6.000000   3.000000 Cr
1.500000     8.500000   9.500000 Cr
6.500000     6.500000   3.500000 Cr
7.500000     8.500000   5.500000 Cr
9.000000     5.000000   1.000000 Cr
0.000000     5.000000   6.000000 Cr
6.000000     6.000000   8.000000 Cr
3.500000     8.500000   0.500000 Cr
5.500000     8.500000   0.500000 Fe
8.500000     3.500000   5.500000 Fe
7.500000     5.500000   5.500000 Fe
8.500000     4.500000   4.500000 Fe
2.000000     3.000000   2.000000 Fe
6.000000     0.000000   8.000000 Fe
7.500000     8.500000   0.500000 Fe
5.000000     1.000000   2.000000 Fe
5.000000     8.000000   9.000000 Fe
1.500000     7.500000   3.500000 Fe
5.500000     6.500000   6.500000 Fe
7.000000     6.000000   1.000000 Fe
0.000000     6.000000   6.000000 Fe
6.500000     8.500000   6.500000 Fe
0.000000     7.000000   4.000000 Fe
6.500000     5.500000   2.500000 Fe
2.000000     5.000000   6.000000 Fe
1.500000     9.500000   2.500000 Fe
6.000000     4.000000   4.000000 Fe
2.500000     9.500000   3.500000 Fe
7.500000     4.500000   7.500000 Fe
1.000000     3.000000   2.000000 Fe
5.500000     7.500000   2.500000 Fe
0.000000     5.000000   9.000000 Fe
6.500000     6.500000   2.500000 Fe
7.500000     5.500000   2.500000 Fe
1.500000     3.500000   0.500000 Fe
1.500000     2.500000   8.500000 Fe
1.000000     2.000000   7.000000 Fe
6.500000     3.500000   0.500000 Fe
3.500000     4.500000   0.500000 Fe
6.500000     5.500000   4.500000 Fe
2.000000     0.000000   9.000000 Fe
3.000000     6.000000   9.000000 Fe
6.000000     3.000000   9.000000 Fe
4.500000     4.500000   2.500000 Fe
3.500000     7.500000   5.500000 Fe
7.000000     3.000000   4.000000 Fe
3.500000     5.500000   3.500000 Fe
7.500000     6.500000   2.500000 Fe
3.500000     0.500000   6.500000 Fe
7.000000     1.000000   4.000000 Fe
0.500000     1.500000   0.500000 Fe
5.500000     4.500000   7.500000 Fe
9.500000     5.500000   6.500000 Fe
9.000000     3.000000   0.000000 Fe
6.000000     8.000000   7.000000 Fe
9.000000     5.000000   7.000000 Fe
7.500000     6.500000   0.500000 Fe
2.500000     8.500000   7.500000 Fe
1.000000     2.000000   6.000000 Fe
8.000000     7.000000   8.000000 Fe
4.500000     3.500000   5.500000 Fe
7.500000     1.500000   8.500000 Fe
6.000000     2.000000   2.000000 Fe
8.000000     7.000000   3.000000 Fe
2.500000     0.500000   7.500000 Fe
5.500000     7.500000   5.500000 Fe
8.500000     4.500000   7.500000 Fe
9.000000     8.000000   4.000000 Fe
5.500000     3.500000   6.500000 Fe
7.000000     2.000000   7.000000 Fe
1.000000     1.000000   8.000000 Fe
6.000000     2.000000   7.000000 Fe
7.500000     3.500000   0.500000 Fe
4.000000     1.000000   2.000000 Fe
8.500000     5.500000   1.500000 Fe
2.000000     7.000000   9.000000 Fe
6.000000     2.000000   8.000000 Fe
6.000000     9.000000   3.000000 Fe
6.500000     9.500000   4.500000 Fe
7.000000     8.000000   2.000000 Fe
1.000000     8.000000   1.000000 Fe
1.000000     0.000000   4.000000 Fe
1.000000     2.000000   3.000000 Fe
1.500000     9.500000   4.500000 Fe
5.000000     3.000000   3.000000 Fe
4.000000     4.000000   1.000000 Fe
6.500000     4.500000   5.500000 Fe
6.500000     1.500000   6.500000 Fe
1.000000     3.000000   3.000000 Fe
8.000000     7.000000   7.000000 Fe
4.500000     0.500000   5.500000 Fe
4.500000     4.500000   3.500000 Fe
0.000000     5.000000   8.000000 Fe
2.000000     9.000000   0.000000 Fe
9.500000     7.500000   4.500000 Fe
5.000000     8.000000   5.000000 Fe
8.500000     6.500000   4.500000 Fe
2.000000     8.000000   0.000000 Fe
8.000000     4.000000   4.000000 Fe
4.000000     7.000000   8.000000 Fe
4.500000     7.500000   4.500000 Fe
1.500000     0.500000   5.500000 Fe
8.500000     5.500000   4.500000 Fe
2.000000     1.000000   4.000000 Fe
3.000000     9.000000   4.000000 Fe
1.500000     1.500000   1.500000 Fe
8.000000     6.000000   2.000000 Fe
8.500000     9.500000   8.500000 Fe
6.000000     6.000000   4.000000 Fe
5.500000     0.500000   7.500000 Fe
0.500000     7.500000   1.500000 Fe
5.500000     4.500000   0.500000 Fe
4.000000     5.000000   1.000000 Fe
8.500000     0.500000   8.500000 Fe
7.000000     7.000000   2.000000 Fe
3.000000     3.000000   7.000000 Fe
5.000000     8.000000   7.000000 Fe
8.500000     5.500000   7.500000 Fe
0.000000     7.000000   6.000000 Fe
5.000000     6.000000   9.000000 Fe
7.500000     8.500000   8.500000 Fe
3.500000     6.500000   2.500000 Fe
4.000000     2.000000   3.000000 Fe
4.000000     6.000000   1.000000 Fe
5.500000     5.500000   7.500000 Fe
9.500000     5.500000   9.500000 Fe
1.000000     2.000000   5.000000 Fe
2.000000     9.000000   6.000000 Fe
7.000000     8.000000   5.000000 Fe
0.000000     6.000000   9.000000 Fe
9.000000     0.000000   6.000000 Fe
9.000000     2.000000   2.000000 Fe
3.500000     0.500000   7.500000 Fe
9.000000     2.000000   7.000000 Fe
8.500000     8.500000   6.500000 Fe
5.000000     3.000000   0.000000 Fe
1.000000     4.000000   1.000000 Fe
9.000000     0.000000   2.000000 Fe
2.500000     7.500000   4.500000 Fe
6.500000     9.500000   2.500000 Fe
7.000000     9.000000   1.000000 Fe
0.500000     4.500000   3.500000 Fe
3.000000     9.000000   1.000000 Fe
1.000000     5.000000   6.000000 Fe
7.000000     5.000000   4.000000 Fe
7.500000     3.500000   9.500000 Fe
5.500000     1.500000   7.500000 Fe
6.500000     4.500000   4.500000 Fe
7.500000     8.500000   1.500000 Fe
7.500000     0.500000   2.500000 Fe
8.500000     2.500000   8.500000 Fe
1.000000     7.000000   1.000000 Fe
6.500000     5.500000   0.500000 Fe
0.000000     0.000000   8.000000 Fe
8.500000     4.500000   0.500000 Fe
9.500000     7.500000   6.500000 Fe
9.000000     7.000000   6.000000 Fe
9.500000     2.500000   8.500000 Fe
6.000000     3.000000   8.000000 Fe
7.500000     3.500000   5.500000 Fe
4.000000     1.000000   1.000000 Fe
8.000000     9.000000   3.000000 Fe
7.500000     0.500000   8.500000 Fe
3.000000     3.000000   5.000000 Fe
4.500000     2.500000   0.500000 Fe
9.000000     9.000000   0.000000 Fe
2.000000     3.000000   1.000000 Fe
4.500000     1.500000   1.500000 Fe
9.000000     1.000000   1.000000 Fe
2.500000     7.500000   0.500000 Fe
8.000000     3.000000   9.000000 Fe
4.000000     8.000000   3.000000 Fe
6.500000     0.500000   7.500000 Fe
6.000000     5.000000   0.000000 Fe
6.500000     8.500000   4.500000 Fe
4.000000     9.000000   4.000000 Fe
0.500000     3.500000   1.500000 Fe
4.500000     4.500000   6.500000 Fe
8.000000     1.000000   0.000000 Fe
0.500000     5.500000   7.500000 Fe
1.500000     6.500000   3.500000 Fe
2.000000     0.000000   5.000000 Fe
7.000000     7.000000   7.000000 Fe
6.000000     1.000000   6.000000 Fe
9.000000     6.000000   1.000000 Fe
4.500000     0.500000   9.500000 Fe
1.000000     2.000000   9.000000 Fe
9.000000     3.000000   1.000000 Fe
4.500000     2.500000   8.500000 Fe
0.500000     5.500000   4.500000 Fe
9.000000     9.000000   4.000000 Fe
0.500000     8.500000   0.500000 Fe
5.000000     8.000000   3.000000 Fe
9.000000     9.000000   1.000000 Fe
6.000000     7.000000   1.000000 Fe
3.000000     7.000000   5.000000 Fe
7.500000     0.500000   9.500000 Fe
1.500000     5.500000   1.500000 Fe
8.000000     1.000000   5.000000 Fe
6.000000     9.000000   7.000000 Fe
6.000000     8.000000   6.000000 Fe
7.000000     6.000000   8.000000 Fe
8.000000     4.000000   2.000000 Fe
8.000000     1.000000   3.000000 Fe
5.500000     1.500000   3.500000 Fe
0.000000     3.000000   3.000000 Fe
5.500000     4.500000   5.500000 Fe
4.000000     7.000000   2.000000 Fe
8.000000     9.000000   8.000000 Fe
8.500000     2.500000   2.500000 Fe
0.000000     4.000000   4.000000 Fe
4.500000     1.500000   7.500000 Fe
6.000000     6.000000   6.000000 Fe
8.500000     8.500000   0.500000 Fe
1.500000     5.500000   5.500000 Fe
6.500000     6.500000   1.500000 Fe
0.000000     4.000000   7.000000 Fe
6.000000     4.000000   6.000000 Fe
0.000000     3.000000   6.000000 Fe
0.500000     4.500000   0.500000 Fe
7.000000     9.000000   4.000000 Fe
0.000000     8.000000   0.000000 Fe
8.500000     2.500000   7.500000 Fe
6.500000     9.500000   1.500000 Fe
3.000000     0.000000   0.000000 Fe
6.000000     6.000000   5.000000 Fe
4.000000     3.000000   0.000000 Fe
4.500000     7.500000   3.500000 Fe
5.000000     7.000000   7.000000 Fe
4.000000     9.000000   6.000000 Fe
4.500000     6.500000   2.500000 Fe
2.000000     0.000000   0.000000 Fe
6.500000     6.500000   8.500000 Fe
1.500000     8.500000   6.500000 Fe
8.500000     1.500000   8.500000 Fe
8.500000     1.500000   9.500000 Fe
7.000000     2.000000   0.000000 Fe
2.000000     5.000000   3.000000 Fe
5.500000     3.500000   7.500000 Fe
3.000000     2.000000   5.000000 Fe
2.000000     8.000000   1.000000 Fe
3.500000     1.500000   7.500000 Fe
2.500000     0.500000   0.500000 Fe
4.500000     5.500000   1.500000 Fe
7.000000     4.000000   4.000000 Fe
8.000000     9.000000   4.000000 Fe
4.500000     8.500000   4.500000 Fe
0.500000     9.500000   5.500000 Fe
5.000000     5.000000   8.000000 Fe
8.000000     1.000000   4.000000 Fe
9.000000     6.000000   3.000000 Fe
3.000000     7.000000   3.000000 Fe
5.000000     3.000000   8.000000 Fe
7.500000     7.500000   0.500000 Fe
3.500000     4.500000   5.500000 Fe
9.500000     0.500000   6.500000 Fe
4.000000     1.000000   5.000000 Fe
0.500000     6.500000   0.500000 Fe
9.500000     2.500000   2.500000 Fe
9.500000     4.500000   6.500000 Fe
6.000000     9.000000   2.000000 Fe
5.000000     1.000000   4.000000 Fe
6.000000     4.000000   8.000000 Fe
1.500000     3.500000   3.500000 Fe
2.000000     0.000000   7.000000 Fe
8.500000     7.500000   1.500000 Fe
2.000000     2.000000   9.000000 Fe
8.000000     2.000000   1.000000 Fe
4.500000     1.500000   6.500000 Fe
0.500000     3.500000   0.500000 Fe
5.500000     3.500000   4.500000 Fe
1.000000     1.000000   4.000000 Fe
0.500000     4.500000   6.500000 Fe
1.000000     1.000000   6.000000 Fe
4.500000     0.500000   1.500000 Fe
5.500000     9.500000   4.500000 Fe
4.500000     9.500000   9.500000 Fe
4.500000     2.500000   4.500000 Fe
9.000000     1.000000   3.000000 Fe
1.500000     2.500000   6.500000 Fe
6.000000     3.000000   7.000000 Fe
7.000000     6.000000   4.000000 Fe
2.000000     9.000000   5.000000 Fe
9.000000     4.000000   8.000000 Fe
8.500000     4.500000   9.500000 Fe
8.500000     9.500000   7.500000 Fe
8.500000     3.500000   0.500000 Fe
1.000000     3.000000   8.000000 Fe
6.000000     6.000000   2.000000 Fe
8.500000     7.500000   6.500000 Fe
7.000000     0.000000   6.000000 Fe
7.000000     9.000000   0.000000 Fe
8.000000     0.000000   5.000000 Fe
4.500000     2.500000   9.500000 Fe
7.500000     6.500000   5.500000 Fe
2.000000     8.000000   5.000000 Fe
4.000000     5.000000   7.000000 Fe
3.500000     1.500000   0.500000 Fe
5.500000     6.500000   3.500000 Fe
9.500000     0.500000   0.500000 Fe
5.000000     5.000000   1.000000 Fe
7.500000     7.500000   2.500000 Fe
4.000000     5.000000   9.000000 Fe
3.500000     6.500000   5.500000 Fe
7.000000     2.000000   5.000000 Fe
9.500000     4.500000   7.500000 Fe
1.000000     8.000000   4.000000 Fe
2.500000     4.500000   4.500000 Fe
3.000000     4.000000   8.000000 Fe
4.000000     2.000000   5.000000 Fe
5.000000     5.000000   6.000000 Fe
1.000000     0.000000   6.000000 Fe
4.000000     8.000000   0.000000 Fe
4.000000     4.000000   6.000000 Fe
3.000000     2.000000   6.000000 Fe
8.500000     9.500000   3.500000 Fe
9.000000     1.000000   2.000000 Fe
6.000000     3.000000   1.000000 Fe
7.500000     0.500000   6.500000 Fe
3.500000     7.500000   3.500000 Fe
3.000000     2.000000   1.000000 Fe
9.500000     5.500000   5.500000 Fe
8.500000     7.500000   3.500000 Fe
9.000000     9.000000   3.000000 Fe
2.000000     5.000000   2.000000 Fe
2.500000     7.500000   7.500000 Fe
9.500000     2.500000   0.500000 Fe
6.000000     1.000000   8.000000 Fe
9.000000     1.000000   6.000000 Fe
4.500000     5.500000   0.500000 Fe
0.500000     9.500000   9.500000 Fe
7.000000     5.000000   0.000000 Fe
1.000000     3.000000   1.000000 Fe
0.500000     6.500000   1.500000 Fe
1.000000     1.000000   3.000000 Fe
4.000000     0.000000   2.000000 Fe
3.000000     8.000000   8.000000 Fe